186 5
10 10 10 10 10 

0 0 0 0 0 0 3 2 14 26 
0 0 0 0 0 0 2 3 4 
1 0 0 1 0 0 2 7 5 
5 0 0 3 0 0 1 5 
8 0 0 4 0 0 2 8 6 
4 0 0 1 0 0 2 10 9 
10 0 0 2 0 0 2 10 9 
5 0 0 5 0 0 1 9 
4 0 0 2 0 0 2 12 11 
2 0 0 2 0 0 3 12 11 110 
6 0 0 3 0 0 1 13 
6 0 0 2 0 0 1 13 
0 0 0 0 0 0 1 38 
0 0 0 0 0 0 3 15 17 19 
4 0 0 0 1 0 2 18 16 
2 0 0 0 5 0 2 23 20 
5 0 0 0 3 0 2 24 21 
9 0 0 0 3 0 1 20 
1 0 0 0 2 0 1 20 
10 0 0 0 2 0 1 21 
10 0 0 0 2 0 1 22 
8 0 0 0 3 0 2 25 95 
9 0 0 0 1 0 1 25 
4 0 0 0 3 0 1 25 
0 0 0 0 0 0 1 38 
0 0 0 0 0 0 2 27 28 
6 0 0 1 0 0 2 31 30 
1 0 0 3 0 0 1 29 
9 0 0 3 0 0 1 30 
4 0 0 3 0 0 3 36 33 32 
3 0 0 2 0 0 2 35 33 
1 0 0 1 0 0 2 35 34 
5 0 0 6 0 0 2 34 180 
4 0 0 3 0 0 1 37 
2 0 0 2 0 0 1 37 
2 0 0 1 0 0 1 37 
0 0 0 0 0 0 1 38 
0 0 0 0 0 0 3 39 51 63 
0 0 0 0 0 0 3 40 43 49 
1 0 0 0 1 0 2 48 41 
4 0 0 0 4 0 2 42 180 
5 0 0 0 2 0 3 47 46 44 
5 0 0 0 1 0 2 46 45 
10 0 0 0 4 0 1 45 
3 0 0 0 4 0 1 50 
4 0 0 0 1 0 1 50 
2 0 0 0 3 0 1 50 
3 0 0 0 1 0 1 50 
10 0 0 0 4 0 1 50 
0 0 0 0 0 0 1 75 
0 0 0 0 0 0 2 52 53 
2 0 0 1 0 0 2 57 54 
8 0 0 3 0 0 2 57 54 
8 0 0 3 0 0 3 56 55 168 
1 0 0 3 0 0 2 61 58 
5 0 0 2 0 0 2 61 58 
5 0 0 4 0 0 2 61 58 
9 0 0 2 0 0 2 60 59 
7 0 0 3 0 0 1 62 
4 0 0 2 0 0 1 62 
4 0 0 2 0 0 1 62 
0 0 0 0 0 0 1 75 
0 0 0 0 0 0 3 64 66 67 
5 0 0 1 0 0 1 65 
9 0 0 3 0 0 3 73 69 68 
10 0 0 2 0 0 3 73 70 68 
3 0 0 4 0 0 2 72 69 
8 0 0 2 0 0 2 72 71 
4 0 0 1 0 0 2 70 158 
7 0 0 5 0 0 1 71 
6 0 0 2 0 0 1 74 
4 0 0 3 0 0 1 74 
10 0 0 2 0 0 1 74 
0 0 0 0 0 0 1 75 
0 0 0 0 0 0 3 76 88 100 
0 0 0 0 0 0 1 77 
10 0 0 1 0 0 2 81 78 
2 0 0 2 0 0 2 80 79 
1 0 0 3 0 0 3 84 82 155 
9 0 0 7 0 0 2 84 82 
10 0 0 1 0 0 2 86 83 
5 0 0 2 0 0 2 86 85 
7 0 0 3 0 0 1 84 
8 0 0 1 0 0 1 85 
5 0 0 3 0 0 1 87 
4 0 0 2 0 0 1 87 
0 0 0 0 0 0 1 112 
0 0 0 0 0 0 2 89 91 
7 1 0 0 0 0 2 95 90 
8 3 0 0 0 0 3 93 92 147 
9 1 0 0 0 0 2 93 92 
9 2 0 0 0 0 2 98 97 
3 2 0 0 0 0 1 94 
9 3 0 0 0 0 1 96 
7 5 0 0 0 0 1 96 
1 3 0 0 0 0 1 99 
10 3 0 0 0 0 1 99 
8 2 0 0 0 0 1 99 
0 0 0 0 0 0 1 112 
0 0 0 0 0 0 4 101 103 104 108 
3 0 1 0 0 0 2 107 102 
2 0 1 0 0 0 2 110 105 
5 0 2 0 0 0 2 110 105 
4 0 6 0 0 0 2 110 109 
3 0 3 0 0 0 2 106 164 
8 0 5 0 0 0 1 109 
7 0 3 0 0 0 1 110 
3 0 1 0 0 0 1 109 
7 0 2 0 0 0 1 111 
6 0 1 0 0 0 1 111 
0 0 0 0 0 0 1 112 
0 0 0 0 0 0 3 113 125 137 
0 0 0 0 0 0 2 114 115 
8 0 1 0 0 0 2 119 116 
3 0 8 0 0 0 1 116 
8 0 3 0 0 0 2 118 117 
8 0 3 0 0 0 3 123 121 120 
9 0 3 0 0 0 2 123 120 
3 0 2 0 0 0 3 123 122 175 
10 0 1 0 0 0 1 122 
3 0 1 0 0 0 1 122 
6 0 2 0 0 0 1 124 
2 0 1 0 0 0 1 124 
0 0 0 0 0 0 1 149 
0 0 0 0 0 0 3 126 128 130 
9 0 0 0 1 0 1 127 
1 0 0 0 3 0 2 131 129 
7 0 0 0 3 0 3 135 134 133 
9 0 0 0 3 0 2 133 132 
8 0 0 0 2 0 2 133 132 
4 0 0 0 4 0 2 135 133 
2 0 0 0 1 0 1 134 
1 0 0 0 3 0 1 136 
10 0 0 0 4 0 1 136 
5 0 0 0 1 0 1 136 
0 0 0 0 0 0 1 149 
0 0 0 0 0 0 2 138 140 
1 0 0 0 0 1 2 141 139 
9 0 0 0 0 5 2 144 143 
10 0 0 0 0 3 1 142 
3 0 0 0 0 2 2 147 144 
5 0 0 0 0 4 1 143 
8 0 0 0 0 1 2 147 145 
5 0 0 0 0 2 1 145 
8 0 0 0 0 2 1 146 
9 0 0 0 0 3 1 148 
7 0 0 0 0 2 1 148 
0 0 0 0 0 0 1 149 
0 0 0 0 0 0 3 150 162 174 
0 0 0 0 0 0 2 151 154 
5 0 0 0 0 1 3 160 159 152 
9 0 0 0 0 4 1 153 
3 0 0 0 0 2 2 158 155 
5 0 0 0 0 3 2 158 155 
8 0 0 0 0 2 2 157 156 
3 0 0 0 0 2 1 161 
4 0 0 0 0 1 1 161 
8 0 0 0 0 5 1 161 
6 0 0 0 0 3 1 161 
7 0 0 0 0 2 1 161 
0 0 0 0 0 0 1 186 
0 0 0 0 0 0 2 163 167 
7 0 0 0 0 1 3 172 166 164 
3 0 0 0 0 3 2 169 165 
7 0 0 0 0 4 2 171 168 
9 0 0 0 0 3 2 171 168 
1 0 0 0 0 4 2 172 170 
9 0 0 0 0 1 1 170 
8 0 0 0 0 3 1 171 
3 0 0 0 0 2 1 173 
10 0 0 0 0 3 1 173 
9 0 0 0 0 1 1 173 
0 0 0 0 0 0 1 186 
0 0 0 0 0 0 2 175 177 
6 1 0 0 0 0 3 180 178 176 
10 2 0 0 0 0 3 184 182 181 
7 4 0 0 0 0 3 184 182 181 
9 5 0 0 0 0 1 179 
4 1 0 0 0 0 2 182 181 
5 2 0 0 0 0 2 184 182 
4 3 0 0 0 0 1 183 
4 1 0 0 0 0 1 185 
5 3 0 0 0 0 1 185 
7 3 0 0 0 0 1 185 
0 0 0 0 0 0 1 186 
0 0 0 0 0 0 0 
